*HEADING
Cantilever Beam with Eurocode 3 (EN 1993-1-1) Code Check
*NODE, NSET=NALL
1, 0.0, 0.0, 0.0
2, 6.0, 0.0, 0.0
*USER ELEMENT, TYPE=UB31, NODES=2, MAXDOF=6, INTEGRATIONPOINTS=1
*ELEMENT, TYPE=UB31, ELSET=EBEAM
1, 1, 2
*USER BEAM SECTION, ELSET=EBEAM, MATERIAL=STEEL, SECTION=I
0.30, 0.15, 0.0107, 0.15, 0.0107, 0.0071
*MATERIAL, NAME=STEEL
*ELASTIC
210.0E9, 0.30
*BOUNDARY
1, 1, 6, 0.0
*USER BEAM DESIGN, ELSET=EBEAM
FY=275.0E6, LCR_Y=6.0, LCR_Z=6.0, L_LT=6.0, C1=1.13
*USER BEAM OUTPUT, FILE=cantilever_forces.csv, SUBDIVISIONS=5
*USER BEAM CHECK, CODE=EC3, STEEL=S275, SUBDIVISIONS=5, FILE=cantilever_ec3_check.csv
*STEP
*STATIC
*CLOAD
2, 2, -25000.0
*NODE FILE
U
*EL FILE
S
*END STEP
